\ LP format - for model browsing. Use MPS format to capture full model detail.
Maximize
obj:   x[1] + x[96] + x[64] + x[68] + x[69] + x[8] + x[18] + x[110] + x[47]
   + x[112] + x[50] + x[84] + x[142] + x[86] + x[59] + x[28] + x[61]
   + x[101] + x[2] + x[65] + x[130] + x[99] + x[72] + x[14] + x[79] + x[81]
   + x[57] + x[60] + x[3] + x[83] + x[49] + x[71] + x[9] + x[103] + x[44]
   + x[143] + x[144] + x[113] + x[146] + x[115] + x[54] + x[105] + x[15]
   + x[29] + x[150] + x[4] + x[10] + x[148] + x[23] + x[38] + x[40] + x[56]
   + x[66] + x[70] + x[74] + x[78] + x[85] + x[93] + x[107] + x[114]
   + x[118] + x[120] + x[124] + x[5] + x[129] + x[6] + x[7] + x[104]
   + x[42] + x[17] + x[21] + x[32] + x[98] + x[131] + x[102] + x[139]
   + x[140] + x[116] + x[62] + x[22] + x[121] + x[126] + x[34] + x[67]
   + x[45] + x[141] + x[26] + x[147] + x[122] + x[125] + x[135] + x[12]
   + x[145] + x[24] + x[41] + x[76] + x[77] + x[25] + x[94] + x[117]
   + x[19] + x[36] + x[55] + x[11] + x[109] + x[51] + x[73] + x[20] + x[35]
   + x[31] + x[92] + x[138] + x[95] + x[133] + x[89] + x[13] + x[100]
   + x[111] + x[80] + x[149] + x[27] + x[16] + x[52] + x[91] + x[106]
   + x[88] + x[137] + x[43] + x[90] + x[58] + x[134] + x[82] + x[39]
   + x[63] + x[75] + x[123] + x[33] + x[53] + x[30] + x[46] + x[136]
   + x[48] + x[127] + x[132] + x[97] + x[87] + x[37] + x[128] + x[119]
   + x[108]
Subject To
 edge1: x[1] + x[96] <= 1
 edge2: x[1] + x[64] <= 1
 edge3: x[1] + x[68] <= 1
 edge4: x[1] + x[69] <= 1
 edge5: x[1] + x[8] <= 1
 edge6: x[1] + x[18] <= 1
 edge7: x[1] + x[110] <= 1
 edge8: x[1] + x[47] <= 1
 edge9: x[1] + x[112] <= 1
 edge10: x[1] + x[50] <= 1
 edge11: x[1] + x[84] <= 1
 edge12: x[1] + x[142] <= 1
 edge13: x[1] + x[86] <= 1
 edge14: x[1] + x[59] <= 1
 edge15: x[1] + x[28] <= 1
 edge16: x[1] + x[61] <= 1
 edge17: x[1] + x[101] <= 1
 edge18: x[96] + x[8] <= 1
 edge19: x[96] + x[15] <= 1
 edge20: x[96] + x[18] <= 1
 edge21: x[96] + x[39] <= 1
 edge22: x[96] + x[41] <= 1
 edge23: x[96] + x[44] <= 1
 edge24: x[96] + x[60] <= 1
 edge25: x[96] + x[61] <= 1
 edge26: x[96] + x[70] <= 1
 edge27: x[96] + x[93] <= 1
 edge28: x[96] + x[94] <= 1
 edge29: x[96] + x[102] <= 1
 edge30: x[96] + x[135] <= 1
 edge31: x[96] + x[115] <= 1
 edge32: x[96] + x[116] <= 1
 edge33: x[96] + x[127] <= 1
 edge34: x[64] + x[21] <= 1
 edge35: x[64] + x[37] <= 1
 edge36: x[64] + x[42] <= 1
 edge37: x[64] + x[57] <= 1
 edge38: x[64] + x[83] <= 1
 edge39: x[64] + x[97] <= 1
 edge40: x[64] + x[104] <= 1
 edge41: x[64] + x[129] <= 1
 edge42: x[64] + x[79] <= 1
 edge43: x[64] + x[81] <= 1
 edge44: x[64] + x[147] <= 1
 edge45: x[68] + x[3] <= 1
 edge46: x[68] + x[5] <= 1
 edge47: x[68] + x[6] <= 1
 edge48: x[68] + x[20] <= 1
 edge49: x[68] + x[37] <= 1
 edge50: x[68] + x[45] <= 1
 edge51: x[68] + x[53] <= 1
 edge52: x[68] + x[57] <= 1
 edge53: x[68] + x[58] <= 1
 edge54: x[68] + x[74] <= 1
 edge55: x[68] + x[119] <= 1
 edge56: x[68] + x[78] <= 1
 edge57: x[68] + x[81] <= 1
 edge58: x[68] + x[89] <= 1
 edge59: x[68] + x[120] <= 1
 edge60: x[68] + x[123] <= 1
 edge61: x[68] + x[125] <= 1
 edge62: x[69] + x[7] <= 1
 edge63: x[69] + x[8] <= 1
 edge64: x[69] + x[21] <= 1
 edge65: x[69] + x[31] <= 1
 edge66: x[69] + x[35] <= 1
 edge67: x[69] + x[62] <= 1
 edge68: x[69] + x[97] <= 1
 edge69: x[69] + x[71] <= 1
 edge70: x[69] + x[108] <= 1
 edge71: x[69] + x[113] <= 1
 edge72: x[69] + x[75] <= 1
 edge73: x[69] + x[83] <= 1
 edge74: x[69] + x[90] <= 1
 edge75: x[69] + x[92] <= 1
 edge76: x[8] + x[6] <= 1
 edge77: x[8] + x[135] <= 1
 edge78: x[8] + x[74] <= 1
 edge79: x[8] + x[12] <= 1
 edge80: x[8] + x[145] <= 1
 edge81: x[8] + x[114] <= 1
 edge82: x[8] + x[84] <= 1
 edge83: x[8] + x[22] <= 1
 edge84: x[8] + x[24] <= 1
 edge85: x[8] + x[70] <= 1
 edge86: x[8] + x[61] <= 1
 edge87: x[18] + x[98] <= 1
 edge88: x[18] + x[104] <= 1
 edge89: x[18] + x[137] <= 1
 edge90: x[18] + x[106] <= 1
 edge91: x[18] + x[43] <= 1
 edge92: x[18] + x[79] <= 1
 edge93: x[18] + x[20] <= 1
 edge94: x[18] + x[55] <= 1
 edge95: x[18] + x[90] <= 1
 edge96: x[18] + x[59] <= 1
 edge97: x[18] + x[58] <= 1
 edge98: x[110] + x[6] <= 1
 edge99: x[110] + x[21] <= 1
 edge100: x[110] + x[33] <= 1
 edge101: x[110] + x[41] <= 1
 edge102: x[110] + x[46] <= 1
 edge103: x[110] + x[51] <= 1
 edge104: x[110] + x[56] <= 1
 edge105: x[110] + x[63] <= 1
 edge106: x[110] + x[87] <= 1
 edge107: x[110] + x[88] <= 1
 edge108: x[110] + x[89] <= 1
 edge109: x[110] + x[91] <= 1
 edge110: x[110] + x[98] <= 1
 edge111: x[110] + x[123] <= 1
 edge112: x[110] + x[129] <= 1
 edge113: x[110] + x[127] <= 1
 edge114: x[47] + x[6] <= 1
 edge115: x[47] + x[11] <= 1
 edge116: x[47] + x[39] <= 1
 edge117: x[47] + x[42] <= 1
 edge118: x[47] + x[86] <= 1
 edge119: x[47] + x[104] <= 1
 edge120: x[47] + x[140] <= 1
 edge121: x[47] + x[150] <= 1
 edge122: x[47] + x[87] <= 1
 edge123: x[47] + x[123] <= 1
 edge124: x[47] + x[134] <= 1
 edge125: x[112] + x[4] <= 1
 edge126: x[112] + x[22] <= 1
 edge127: x[112] + x[27] <= 1
 edge128: x[112] + x[43] <= 1
 edge129: x[112] + x[66] <= 1
 edge130: x[112] + x[70] <= 1
 edge131: x[112] + x[76] <= 1
 edge132: x[112] + x[82] <= 1
 edge133: x[112] + x[97] <= 1
 edge134: x[112] + x[108] <= 1
 edge135: x[112] + x[143] <= 1
 edge136: x[112] + x[132] <= 1
 edge137: x[50] + x[2] <= 1
 edge138: x[50] + x[13] <= 1
 edge139: x[50] + x[48] <= 1
 edge140: x[50] + x[118] <= 1
 edge141: x[50] + x[130] <= 1
 edge142: x[50] + x[104] <= 1
 edge143: x[50] + x[73] <= 1
 edge144: x[50] + x[75] <= 1
 edge145: x[50] + x[146] <= 1
 edge146: x[50] + x[147] <= 1
 edge147: x[50] + x[149] <= 1
 edge148: x[50] + x[54] <= 1
 edge149: x[50] + x[92] <= 1
 edge150: x[84] + x[10] <= 1
 edge151: x[84] + x[19] <= 1
 edge152: x[84] + x[25] <= 1
 edge153: x[84] + x[37] <= 1
 edge154: x[84] + x[42] <= 1
 edge155: x[84] + x[55] <= 1
 edge156: x[84] + x[57] <= 1
 edge157: x[84] + x[70] <= 1
 edge158: x[84] + x[105] <= 1
 edge159: x[84] + x[107] <= 1
 edge160: x[84] + x[108] <= 1
 edge161: x[84] + x[93] <= 1
 edge162: x[84] + x[146] <= 1
 edge163: x[84] + x[89] <= 1
 edge164: x[84] + x[137] <= 1
 edge165: x[84] + x[122] <= 1
 edge166: x[142] + x[7] <= 1
 edge167: x[142] + x[9] <= 1
 edge168: x[142] + x[15] <= 1
 edge169: x[142] + x[31] <= 1
 edge170: x[142] + x[34] <= 1
 edge171: x[142] + x[46] <= 1
 edge172: x[142] + x[58] <= 1
 edge173: x[142] + x[83] <= 1
 edge174: x[142] + x[92] <= 1
 edge175: x[142] + x[95] <= 1
 edge176: x[142] + x[102] <= 1
 edge177: x[142] + x[115] <= 1
 edge178: x[142] + x[117] <= 1
 edge179: x[142] + x[119] <= 1
 edge180: x[142] + x[120] <= 1
 edge181: x[142] + x[122] <= 1
 edge182: x[142] + x[132] <= 1
 edge183: x[142] + x[133] <= 1
 edge184: x[142] + x[137] <= 1
 edge185: x[86] + x[7] <= 1
 edge186: x[86] + x[27] <= 1
 edge187: x[86] + x[31] <= 1
 edge188: x[86] + x[40] <= 1
 edge189: x[86] + x[55] <= 1
 edge190: x[86] + x[59] <= 1
 edge191: x[86] + x[82] <= 1
 edge192: x[86] + x[128] <= 1
 edge193: x[86] + x[137] <= 1
 edge194: x[86] + x[114] <= 1
 edge195: x[86] + x[113] <= 1
 edge196: x[86] + x[125] <= 1
 edge197: x[59] + x[9] <= 1
 edge198: x[59] + x[12] <= 1
 edge199: x[59] + x[20] <= 1
 edge200: x[59] + x[98] <= 1
 edge201: x[59] + x[132] <= 1
 edge202: x[59] + x[97] <= 1
 edge203: x[59] + x[76] <= 1
 edge204: x[59] + x[81] <= 1
 edge205: x[59] + x[117] <= 1
 edge206: x[59] + x[87] <= 1
 edge207: x[59] + x[116] <= 1
 edge208: x[59] + x[127] <= 1
 edge209: x[28] + x[12] <= 1
 edge210: x[28] + x[133] <= 1
 edge211: x[28] + x[102] <= 1
 edge212: x[28] + x[78] <= 1
 edge213: x[28] + x[111] <= 1
 edge214: x[28] + x[51] <= 1
 edge215: x[28] + x[150] <= 1
 edge216: x[28] + x[88] <= 1
 edge217: x[28] + x[57] <= 1
 edge218: x[28] + x[61] <= 1
 edge219: x[61] + x[7] <= 1
 edge220: x[61] + x[11] <= 1
 edge221: x[61] + x[66] <= 1
 edge222: x[61] + x[73] <= 1
 edge223: x[61] + x[76] <= 1
 edge224: x[61] + x[147] <= 1
 edge225: x[61] + x[149] <= 1
 edge226: x[61] + x[87] <= 1
 edge227: x[61] + x[83] <= 1
 edge228: x[61] + x[71] <= 1
 edge229: x[101] + x[7] <= 1
 edge230: x[101] + x[23] <= 1
 edge231: x[101] + x[71] <= 1
 edge232: x[101] + x[82] <= 1
 edge233: x[101] + x[89] <= 1
 edge234: x[101] + x[149] <= 1
 edge235: x[101] + x[103] <= 1
 edge236: x[101] + x[124] <= 1
 edge237: x[2] + x[65] <= 1
 edge238: x[2] + x[130] <= 1
 edge239: x[2] + x[99] <= 1
 edge240: x[2] + x[72] <= 1
 edge241: x[2] + x[14] <= 1
 edge242: x[2] + x[79] <= 1
 edge243: x[2] + x[81] <= 1
 edge244: x[2] + x[57] <= 1
 edge245: x[2] + x[60] <= 1
 edge246: x[65] + x[4] <= 1
 edge247: x[65] + x[20] <= 1
 edge248: x[65] + x[27] <= 1
 edge249: x[65] + x[38] <= 1
 edge250: x[65] + x[41] <= 1
 edge251: x[65] + x[48] <= 1
 edge252: x[65] + x[62] <= 1
 edge253: x[65] + x[91] <= 1
 edge254: x[65] + x[102] <= 1
 edge255: x[65] + x[66] <= 1
 edge256: x[65] + x[78] <= 1
 edge257: x[65] + x[147] <= 1
 edge258: x[65] + x[105] <= 1
 edge259: x[65] + x[88] <= 1
 edge260: x[130] + x[7] <= 1
 edge261: x[130] + x[12] <= 1
 edge262: x[130] + x[19] <= 1
 edge263: x[130] + x[23] <= 1
 edge264: x[130] + x[62] <= 1
 edge265: x[130] + x[85] <= 1
 edge266: x[130] + x[123] <= 1
 edge267: x[99] + x[20] <= 1
 edge268: x[99] + x[73] <= 1
 edge269: x[99] + x[74] <= 1
 edge270: x[99] + x[83] <= 1
 edge271: x[99] + x[145] <= 1
 edge272: x[72] + x[3] <= 1
 edge273: x[72] + x[4] <= 1
 edge274: x[72] + x[7] <= 1
 edge275: x[72] + x[9] <= 1
 edge276: x[72] + x[11] <= 1
 edge277: x[72] + x[12] <= 1
 edge278: x[72] + x[22] <= 1
 edge279: x[72] + x[35] <= 1
 edge280: x[72] + x[55] <= 1
 edge281: x[72] + x[58] <= 1
 edge282: x[72] + x[70] <= 1
 edge283: x[72] + x[134] <= 1
 edge284: x[72] + x[82] <= 1
 edge285: x[72] + x[73] <= 1
 edge286: x[72] + x[114] <= 1
 edge287: x[72] + x[85] <= 1
 edge288: x[72] + x[137] <= 1
 edge289: x[72] + x[117] <= 1
 edge290: x[14] + x[131] <= 1
 edge291: x[14] + x[102] <= 1
 edge292: x[14] + x[44] <= 1
 edge293: x[14] + x[80] <= 1
 edge294: x[14] + x[115] <= 1
 edge295: x[79] + x[4] <= 1
 edge296: x[79] + x[5] <= 1
 edge297: x[79] + x[6] <= 1
 edge298: x[79] + x[21] <= 1
 edge299: x[79] + x[26] <= 1
 edge300: x[79] + x[30] <= 1
 edge301: x[79] + x[62] <= 1
 edge302: x[79] + x[63] <= 1
 edge303: x[79] + x[128] <= 1
 edge304: x[79] + x[140] <= 1
 edge305: x[81] + x[19] <= 1
 edge306: x[81] + x[56] <= 1
 edge307: x[81] + x[97] <= 1
 edge308: x[81] + x[135] <= 1
 edge309: x[81] + x[145] <= 1
 edge310: x[81] + x[148] <= 1
 edge311: x[81] + x[117] <= 1
 edge312: x[81] + x[89] <= 1
 edge313: x[81] + x[124] <= 1
 edge314: x[57] + x[4] <= 1
 edge315: x[57] + x[11] <= 1
 edge316: x[57] + x[21] <= 1
 edge317: x[57] + x[32] <= 1
 edge318: x[57] + x[36] <= 1
 edge319: x[57] + x[38] <= 1
 edge320: x[57] + x[46] <= 1
 edge321: x[57] + x[52] <= 1
 edge322: x[57] + x[54] <= 1
 edge323: x[57] + x[107] <= 1
 edge324: x[57] + x[137] <= 1
 edge325: x[57] + x[109] <= 1
 edge326: x[57] + x[115] <= 1
 edge327: x[57] + x[58] <= 1
 edge328: x[57] + x[123] <= 1
 edge329: x[57] + x[125] <= 1
 edge330: x[60] + x[4] <= 1
 edge331: x[60] + x[13] <= 1
 edge332: x[60] + x[46] <= 1
 edge333: x[60] + x[100] <= 1
 edge334: x[60] + x[132] <= 1
 edge335: x[60] + x[73] <= 1
 edge336: x[60] + x[82] <= 1
 edge337: x[60] + x[114] <= 1
 edge338: x[60] + x[116] <= 1
 edge339: x[60] + x[78] <= 1
 edge340: x[60] + x[87] <= 1
 edge341: x[60] + x[93] <= 1
 edge342: x[60] + x[94] <= 1
 edge343: x[3] + x[83] <= 1
 edge344: x[3] + x[49] <= 1
 edge345: x[3] + x[71] <= 1
 edge346: x[3] + x[9] <= 1
 edge347: x[3] + x[103] <= 1
 edge348: x[3] + x[44] <= 1
 edge349: x[3] + x[143] <= 1
 edge350: x[3] + x[144] <= 1
 edge351: x[3] + x[113] <= 1
 edge352: x[3] + x[146] <= 1
 edge353: x[3] + x[115] <= 1
 edge354: x[3] + x[54] <= 1
 edge355: x[3] + x[105] <= 1
 edge356: x[3] + x[15] <= 1
 edge357: x[3] + x[29] <= 1
 edge358: x[3] + x[150] <= 1
 edge359: x[83] + x[35] <= 1
 edge360: x[83] + x[39] <= 1
 edge361: x[83] + x[48] <= 1
 edge362: x[83] + x[66] <= 1
 edge363: x[83] + x[71] <= 1
 edge364: x[83] + x[106] <= 1
 edge365: x[83] + x[116] <= 1
 edge366: x[49] + x[23] <= 1
 edge367: x[49] + x[36] <= 1
 edge368: x[49] + x[38] <= 1
 edge369: x[49] + x[128] <= 1
 edge370: x[49] + x[67] <= 1
 edge371: x[49] + x[102] <= 1
 edge372: x[49] + x[55] <= 1
 edge373: x[49] + x[116] <= 1
 edge374: x[49] + x[117] <= 1
 edge375: x[71] + x[48] <= 1
 edge376: x[71] + x[56] <= 1
 edge377: x[71] + x[97] <= 1
 edge378: x[71] + x[98] <= 1
 edge379: x[71] + x[131] <= 1
 edge380: x[71] + x[129] <= 1
 edge381: x[71] + x[104] <= 1
 edge382: x[71] + x[146] <= 1
 edge383: x[71] + x[115] <= 1
 edge384: x[71] + x[148] <= 1
 edge385: x[71] + x[90] <= 1
 edge386: x[9] + x[98] <= 1
 edge387: x[9] + x[102] <= 1
 edge388: x[9] + x[41] <= 1
 edge389: x[9] + x[76] <= 1
 edge390: x[9] + x[77] <= 1
 edge391: x[9] + x[45] <= 1
 edge392: x[9] + x[104] <= 1
 edge393: x[9] + x[147] <= 1
 edge394: x[9] + x[85] <= 1
 edge395: x[9] + x[25] <= 1
 edge396: x[9] + x[94] <= 1
 edge397: x[9] + x[117] <= 1
 edge398: x[103] + x[5] <= 1
 edge399: x[103] + x[17] <= 1
 edge400: x[103] + x[30] <= 1
 edge401: x[103] + x[38] <= 1
 edge402: x[103] + x[48] <= 1
 edge403: x[103] + x[77] <= 1
 edge404: x[103] + x[90] <= 1
 edge405: x[103] + x[128] <= 1
 edge406: x[103] + x[132] <= 1
 edge407: x[103] + x[120] <= 1
 edge408: x[44] + x[5] <= 1
 edge409: x[44] + x[12] <= 1
 edge410: x[44] + x[13] <= 1
 edge411: x[44] + x[25] <= 1
 edge412: x[44] + x[33] <= 1
 edge413: x[44] + x[38] <= 1
 edge414: x[44] + x[39] <= 1
 edge415: x[44] + x[45] <= 1
 edge416: x[44] + x[82] <= 1
 edge417: x[44] + x[56] <= 1
 edge418: x[44] + x[134] <= 1
 edge419: x[143] + x[4] <= 1
 edge420: x[143] + x[15] <= 1
 edge421: x[143] + x[27] <= 1
 edge422: x[143] + x[37] <= 1
 edge423: x[143] + x[42] <= 1
 edge424: x[143] + x[66] <= 1
 edge425: x[143] + x[87] <= 1
 edge426: x[143] + x[91] <= 1
 edge427: x[143] + x[100] <= 1
 edge428: x[143] + x[109] <= 1
 edge429: x[143] + x[119] <= 1
 edge430: x[143] + x[131] <= 1
 edge431: x[143] + x[134] <= 1
 edge432: x[143] + x[139] <= 1
 edge433: x[143] + x[146] <= 1
 edge434: x[144] + x[55] <= 1
 edge435: x[144] + x[56] <= 1
 edge436: x[144] + x[89] <= 1
 edge437: x[144] + x[129] <= 1
 edge438: x[144] + x[135] <= 1
 edge439: x[144] + x[137] <= 1
 edge440: x[144] + x[145] <= 1
 edge441: x[144] + x[147] <= 1
 edge442: x[144] + x[148] <= 1
 edge443: x[113] + x[5] <= 1
 edge444: x[113] + x[6] <= 1
 edge445: x[113] + x[10] <= 1
 edge446: x[113] + x[11] <= 1
 edge447: x[113] + x[16] <= 1
 edge448: x[113] + x[27] <= 1
 edge449: x[113] + x[34] <= 1
 edge450: x[113] + x[36] <= 1
 edge451: x[113] + x[42] <= 1
 edge452: x[113] + x[46] <= 1
 edge453: x[113] + x[55] <= 1
 edge454: x[113] + x[70] <= 1
 edge455: x[113] + x[85] <= 1
 edge456: x[113] + x[90] <= 1
 edge457: x[113] + x[107] <= 1
 edge458: x[113] + x[135] <= 1
 edge459: x[113] + x[140] <= 1
 edge460: x[113] + x[145] <= 1
 edge461: x[113] + x[118] <= 1
 edge462: x[113] + x[123] <= 1
 edge463: x[113] + x[125] <= 1
 edge464: x[146] + x[11] <= 1
 edge465: x[146] + x[23] <= 1
 edge466: x[146] + x[56] <= 1
 edge467: x[146] + x[80] <= 1
 edge468: x[146] + x[116] <= 1
 edge469: x[146] + x[119] <= 1
 edge470: x[146] + x[120] <= 1
 edge471: x[146] + x[129] <= 1
 edge472: x[115] + x[26] <= 1
 edge473: x[115] + x[31] <= 1
 edge474: x[115] + x[36] <= 1
 edge475: x[115] + x[53] <= 1
 edge476: x[115] + x[58] <= 1
 edge477: x[115] + x[132] <= 1
 edge478: x[115] + x[134] <= 1
 edge479: x[115] + x[141] <= 1
 edge480: x[115] + x[119] <= 1
 edge481: x[54] + x[13] <= 1
 edge482: x[54] + x[19] <= 1
 edge483: x[54] + x[20] <= 1
 edge484: x[54] + x[35] <= 1
 edge485: x[54] + x[128] <= 1
 edge486: x[54] + x[74] <= 1
 edge487: x[54] + x[75] <= 1
 edge488: x[54] + x[93] <= 1
 edge489: x[54] + x[80] <= 1
 edge490: x[54] + x[145] <= 1
 edge491: x[54] + x[119] <= 1
 edge492: x[54] + x[56] <= 1
 edge493: x[54] + x[106] <= 1
 edge494: x[105] + x[24] <= 1
 edge495: x[105] + x[26] <= 1
 edge496: x[105] + x[27] <= 1
 edge497: x[105] + x[33] <= 1
 edge498: x[105] + x[38] <= 1
 edge499: x[105] + x[53] <= 1
 edge500: x[105] + x[70] <= 1
 edge501: x[105] + x[73] <= 1
 edge502: x[105] + x[128] <= 1
 edge503: x[105] + x[106] <= 1
 edge504: x[15] + x[38] <= 1
 edge505: x[15] + x[42] <= 1
 edge506: x[15] + x[116] <= 1
 edge507: x[15] + x[22] <= 1
 edge508: x[15] + x[23] <= 1
 edge509: x[15] + x[121] <= 1
 edge510: x[15] + x[27] <= 1
 edge511: x[29] + x[32] <= 1
 edge512: x[29] + x[97] <= 1
 edge513: x[29] + x[134] <= 1
 edge514: x[29] + x[74] <= 1
 edge515: x[29] + x[77] <= 1
 edge516: x[29] + x[80] <= 1
 edge517: x[29] + x[114] <= 1
 edge518: x[29] + x[53] <= 1
 edge519: x[29] + x[55] <= 1
 edge520: x[29] + x[88] <= 1
 edge521: x[29] + x[93] <= 1
 edge522: x[150] + x[11] <= 1
 edge523: x[150] + x[13] <= 1
 edge524: x[150] + x[16] <= 1
 edge525: x[150] + x[26] <= 1
 edge526: x[150] + x[31] <= 1
 edge527: x[150] + x[33] <= 1
 edge528: x[150] + x[37] <= 1
 edge529: x[150] + x[41] <= 1
 edge530: x[150] + x[127] <= 1
 edge531: x[150] + x[138] <= 1
 edge532: x[4] + x[10] <= 1
 edge533: x[4] + x[148] <= 1
 edge534: x[4] + x[23] <= 1
 edge535: x[4] + x[38] <= 1
 edge536: x[4] + x[40] <= 1
 edge537: x[4] + x[56] <= 1
 edge538: x[4] + x[66] <= 1
 edge539: x[4] + x[70] <= 1
 edge540: x[4] + x[74] <= 1
 edge541: x[4] + x[78] <= 1
 edge542: x[4] + x[85] <= 1
 edge543: x[4] + x[93] <= 1
 edge544: x[4] + x[107] <= 1
 edge545: x[4] + x[114] <= 1
 edge546: x[4] + x[118] <= 1
 edge547: x[4] + x[120] <= 1
 edge548: x[4] + x[124] <= 1
 edge549: x[10] + x[19] <= 1
 edge550: x[10] + x[66] <= 1
 edge551: x[10] + x[36] <= 1
 edge552: x[10] + x[55] <= 1
 edge553: x[10] + x[70] <= 1
 edge554: x[10] + x[17] <= 1
 edge555: x[10] + x[41] <= 1
 edge556: x[10] + x[11] <= 1
 edge557: x[10] + x[109] <= 1
 edge558: x[10] + x[78] <= 1
 edge559: x[10] + x[114] <= 1
 edge560: x[10] + x[51] <= 1
 edge561: x[10] + x[62] <= 1
 edge562: x[10] + x[118] <= 1
 edge563: x[10] + x[73] <= 1
 edge564: x[10] + x[20] <= 1
 edge565: x[148] + x[12] <= 1
 edge566: x[148] + x[36] <= 1
 edge567: x[148] + x[87] <= 1
 edge568: x[148] + x[89] <= 1
 edge569: x[148] + x[122] <= 1
 edge570: x[148] + x[132] <= 1
 edge571: x[148] + x[137] <= 1
 edge572: x[23] + x[33] <= 1
 edge573: x[23] + x[134] <= 1
 edge574: x[23] + x[77] <= 1
 edge575: x[23] + x[116] <= 1
 edge576: x[23] + x[53] <= 1
 edge577: x[23] + x[118] <= 1
 edge578: x[23] + x[122] <= 1
 edge579: x[23] + x[30] <= 1
 edge580: x[23] + x[63] <= 1
 edge581: x[38] + x[32] <= 1
 edge582: x[38] + x[98] <= 1
 edge583: x[38] + x[133] <= 1
 edge584: x[38] + x[109] <= 1
 edge585: x[38] + x[77] <= 1
 edge586: x[38] + x[82] <= 1
 edge587: x[38] + x[94] <= 1
 edge588: x[40] + x[27] <= 1
 edge589: x[40] + x[128] <= 1
 edge590: x[40] + x[98] <= 1
 edge591: x[40] + x[74] <= 1
 edge592: x[40] + x[139] <= 1
 edge593: x[40] + x[76] <= 1
 edge594: x[40] + x[94] <= 1
 edge595: x[40] + x[87] <= 1
 edge596: x[40] + x[62] <= 1
 edge597: x[40] + x[138] <= 1
 edge598: x[40] + x[126] <= 1
 edge599: x[56] + x[19] <= 1
 edge600: x[56] + x[22] <= 1
 edge601: x[56] + x[32] <= 1
 edge602: x[56] + x[46] <= 1
 edge603: x[56] + x[52] <= 1
 edge604: x[56] + x[55] <= 1
 edge605: x[56] + x[128] <= 1
 edge606: x[56] + x[136] <= 1
 edge607: x[56] + x[145] <= 1
 edge608: x[56] + x[78] <= 1
 edge609: x[56] + x[92] <= 1
 edge610: x[56] + x[94] <= 1
 edge611: x[56] + x[111] <= 1
 edge612: x[56] + x[116] <= 1
 edge613: x[56] + x[127] <= 1
 edge614: x[66] + x[5] <= 1
 edge615: x[66] + x[25] <= 1
 edge616: x[66] + x[26] <= 1
 edge617: x[66] + x[51] <= 1
 edge618: x[66] + x[70] <= 1
 edge619: x[66] + x[75] <= 1
 edge620: x[66] + x[125] <= 1
 edge621: x[66] + x[114] <= 1
 edge622: x[66] + x[124] <= 1
 edge623: x[70] + x[32] <= 1
 edge624: x[70] + x[51] <= 1
 edge625: x[70] + x[80] <= 1
 edge626: x[70] + x[104] <= 1
 edge627: x[70] + x[147] <= 1
 edge628: x[70] + x[122] <= 1
 edge629: x[70] + x[93] <= 1
 edge630: x[70] + x[117] <= 1
 edge631: x[74] + x[31] <= 1
 edge632: x[74] + x[36] <= 1
 edge633: x[74] + x[42] <= 1
 edge634: x[74] + x[43] <= 1
 edge635: x[74] + x[46] <= 1
 edge636: x[74] + x[51] <= 1
 edge637: x[74] + x[53] <= 1
 edge638: x[74] + x[55] <= 1
 edge639: x[74] + x[62] <= 1
 edge640: x[74] + x[133] <= 1
 edge641: x[74] + x[91] <= 1
 edge642: x[74] + x[94] <= 1
 edge643: x[74] + x[98] <= 1
 edge644: x[74] + x[100] <= 1
 edge645: x[74] + x[119] <= 1
 edge646: x[74] + x[124] <= 1
 edge647: x[78] + x[30] <= 1
 edge648: x[78] + x[31] <= 1
 edge649: x[78] + x[62] <= 1
 edge650: x[78] + x[136] <= 1
 edge651: x[78] + x[111] <= 1
 edge652: x[78] + x[82] <= 1
 edge653: x[85] + x[5] <= 1
 edge654: x[85] + x[13] <= 1
 edge655: x[85] + x[41] <= 1
 edge656: x[85] + x[42] <= 1
 edge657: x[85] + x[62] <= 1
 edge658: x[85] + x[77] <= 1
 edge659: x[85] + x[97] <= 1
 edge660: x[85] + x[149] <= 1
 edge661: x[85] + x[90] <= 1
 edge662: x[85] + x[106] <= 1
 edge663: x[85] + x[117] <= 1
 edge664: x[93] + x[12] <= 1
 edge665: x[93] + x[26] <= 1
 edge666: x[93] + x[30] <= 1
 edge667: x[93] + x[53] <= 1
 edge668: x[93] + x[124] <= 1
 edge669: x[107] + x[12] <= 1
 edge670: x[107] + x[22] <= 1
 edge671: x[107] + x[32] <= 1
 edge672: x[107] + x[36] <= 1
 edge673: x[114] + x[20] <= 1
 edge674: x[114] + x[21] <= 1
 edge675: x[114] + x[30] <= 1
 edge676: x[114] + x[58] <= 1
 edge677: x[114] + x[67] <= 1
 edge678: x[114] + x[89] <= 1
 edge679: x[114] + x[92] <= 1
 edge680: x[114] + x[128] <= 1
 edge681: x[114] + x[137] <= 1
 edge682: x[118] + x[27] <= 1
 edge683: x[118] + x[43] <= 1
 edge684: x[118] + x[88] <= 1
 edge685: x[118] + x[90] <= 1
 edge686: x[118] + x[92] <= 1
 edge687: x[118] + x[94] <= 1
 edge688: x[118] + x[108] <= 1
 edge689: x[118] + x[135] <= 1
 edge690: x[118] + x[124] <= 1
 edge691: x[118] + x[149] <= 1
 edge692: x[118] + x[125] <= 1
 edge693: x[120] + x[25] <= 1
 edge694: x[120] + x[37] <= 1
 edge695: x[120] + x[41] <= 1
 edge696: x[120] + x[75] <= 1
 edge697: x[120] + x[102] <= 1
 edge698: x[120] + x[116] <= 1
 edge699: x[120] + x[139] <= 1
 edge700: x[120] + x[136] <= 1
 edge701: x[120] + x[147] <= 1
 edge702: x[124] + x[48] <= 1
 edge703: x[124] + x[73] <= 1
 edge704: x[124] + x[87] <= 1
 edge705: x[124] + x[89] <= 1
 edge706: x[124] + x[98] <= 1
 edge707: x[124] + x[121] <= 1
 edge708: x[124] + x[128] <= 1
 edge709: x[124] + x[140] <= 1
 edge710: x[5] + x[129] <= 1
 edge711: x[5] + x[6] <= 1
 edge712: x[5] + x[7] <= 1
 edge713: x[5] + x[104] <= 1
 edge714: x[5] + x[42] <= 1
 edge715: x[5] + x[17] <= 1
 edge716: x[5] + x[21] <= 1
 edge717: x[129] + x[31] <= 1
 edge718: x[129] + x[33] <= 1
 edge719: x[129] + x[41] <= 1
 edge720: x[129] + x[62] <= 1
 edge721: x[129] + x[63] <= 1
 edge722: x[129] + x[75] <= 1
 edge723: x[129] + x[87] <= 1
 edge724: x[129] + x[140] <= 1
 edge725: x[6] + x[32] <= 1
 edge726: x[6] + x[98] <= 1
 edge727: x[6] + x[131] <= 1
 edge728: x[6] + x[102] <= 1
 edge729: x[6] + x[139] <= 1
 edge730: x[6] + x[140] <= 1
 edge731: x[6] + x[104] <= 1
 edge732: x[6] + x[116] <= 1
 edge733: x[6] + x[62] <= 1
 edge734: x[6] + x[22] <= 1
 edge735: x[6] + x[121] <= 1
 edge736: x[6] + x[126] <= 1
 edge737: x[7] + x[34] <= 1
 edge738: x[7] + x[67] <= 1
 edge739: x[7] + x[102] <= 1
 edge740: x[7] + x[139] <= 1
 edge741: x[7] + x[45] <= 1
 edge742: x[7] + x[141] <= 1
 edge743: x[7] + x[26] <= 1
 edge744: x[7] + x[147] <= 1
 edge745: x[7] + x[21] <= 1
 edge746: x[7] + x[126] <= 1
 edge747: x[7] + x[122] <= 1
 edge748: x[7] + x[125] <= 1
 edge749: x[104] + x[24] <= 1
 edge750: x[104] + x[33] <= 1
 edge751: x[104] + x[48] <= 1
 edge752: x[104] + x[95] <= 1
 edge753: x[104] + x[133] <= 1
 edge754: x[104] + x[116] <= 1
 edge755: x[104] + x[121] <= 1
 edge756: x[42] + x[34] <= 1
 edge757: x[42] + x[41] <= 1
 edge758: x[42] + x[100] <= 1
 edge759: x[42] + x[77] <= 1
 edge760: x[42] + x[51] <= 1
 edge761: x[42] + x[149] <= 1
 edge762: x[42] + x[88] <= 1
 edge763: x[42] + x[58] <= 1
 edge764: x[42] + x[138] <= 1
 edge765: x[42] + x[94] <= 1
 edge766: x[17] + x[11] <= 1
 edge767: x[17] + x[106] <= 1
 edge768: x[17] + x[88] <= 1
 edge769: x[17] + x[95] <= 1
 edge770: x[21] + x[32] <= 1
 edge771: x[21] + x[98] <= 1
 edge772: x[21] + x[106] <= 1
 edge773: x[21] + x[55] <= 1
 edge774: x[21] + x[26] <= 1
 edge775: x[21] + x[63] <= 1
 edge776: x[32] + x[13] <= 1
 edge777: x[32] + x[31] <= 1
 edge778: x[32] + x[135] <= 1
 edge779: x[32] + x[39] <= 1
 edge780: x[32] + x[77] <= 1
 edge781: x[32] + x[80] <= 1
 edge782: x[32] + x[147] <= 1
 edge783: x[32] + x[52] <= 1
 edge784: x[32] + x[149] <= 1
 edge785: x[32] + x[58] <= 1
 edge786: x[98] + x[13] <= 1
 edge787: x[98] + x[22] <= 1
 edge788: x[98] + x[41] <= 1
 edge789: x[98] + x[80] <= 1
 edge790: x[98] + x[145] <= 1
 edge791: x[98] + x[136] <= 1
 edge792: x[131] + x[22] <= 1
 edge793: x[131] + x[45] <= 1
 edge794: x[131] + x[55] <= 1
 edge795: x[131] + x[58] <= 1
 edge796: x[131] + x[73] <= 1
 edge797: x[131] + x[75] <= 1
 edge798: x[131] + x[88] <= 1
 edge799: x[131] + x[122] <= 1
 edge800: x[102] + x[43] <= 1
 edge801: x[102] + x[53] <= 1
 edge802: x[102] + x[55] <= 1
 edge803: x[102] + x[87] <= 1
 edge804: x[102] + x[88] <= 1
 edge805: x[102] + x[147] <= 1
 edge806: x[139] + x[12] <= 1
 edge807: x[139] + x[31] <= 1
 edge808: x[139] + x[35] <= 1
 edge809: x[139] + x[37] <= 1
 edge810: x[139] + x[51] <= 1
 edge811: x[139] + x[116] <= 1
 edge812: x[139] + x[125] <= 1
 edge813: x[139] + x[136] <= 1
 edge814: x[140] + x[24] <= 1
 edge815: x[140] + x[39] <= 1
 edge816: x[140] + x[46] <= 1
 edge817: x[140] + x[51] <= 1
 edge818: x[140] + x[108] <= 1
 edge819: x[140] + x[121] <= 1
 edge820: x[140] + x[122] <= 1
 edge821: x[140] + x[128] <= 1
 edge822: x[140] + x[134] <= 1
 edge823: x[140] + x[136] <= 1
 edge824: x[116] + x[48] <= 1
 edge825: x[116] + x[67] <= 1
 edge826: x[116] + x[137] <= 1
 edge827: x[62] + x[39] <= 1
 edge828: x[62] + x[94] <= 1
 edge829: x[62] + x[136] <= 1
 edge830: x[62] + x[122] <= 1
 edge831: x[62] + x[126] <= 1
 edge832: x[62] + x[117] <= 1
 edge833: x[22] + x[39] <= 1
 edge834: x[22] + x[41] <= 1
 edge835: x[22] + x[75] <= 1
 edge836: x[22] + x[125] <= 1
 edge837: x[22] + x[149] <= 1
 edge838: x[22] + x[27] <= 1
 edge839: x[22] + x[90] <= 1
 edge840: x[22] + x[123] <= 1
 edge841: x[22] + x[58] <= 1
 edge842: x[121] + x[27] <= 1
 edge843: x[121] + x[31] <= 1
 edge844: x[121] + x[45] <= 1
 edge845: x[121] + x[51] <= 1
 edge846: x[121] + x[73] <= 1
 edge847: x[121] + x[80] <= 1
 edge848: x[121] + x[100] <= 1
 edge849: x[121] + x[109] <= 1
 edge850: x[121] + x[138] <= 1
 edge851: x[126] + x[80] <= 1
 edge852: x[126] + x[89] <= 1
 edge853: x[126] + x[91] <= 1
 edge854: x[126] + x[111] <= 1
 edge855: x[126] + x[134] <= 1
 edge856: x[34] + x[31] <= 1
 edge857: x[34] + x[109] <= 1
 edge858: x[34] + x[52] <= 1
 edge859: x[34] + x[127] <= 1
 edge860: x[34] + x[138] <= 1
 edge861: x[67] + x[27] <= 1
 edge862: x[67] + x[52] <= 1
 edge863: x[67] + x[91] <= 1
 edge864: x[67] + x[90] <= 1
 edge865: x[45] + x[13] <= 1
 edge866: x[45] + x[19] <= 1
 edge867: x[45] + x[25] <= 1
 edge868: x[45] + x[55] <= 1
 edge869: x[141] + x[11] <= 1
 edge870: x[141] + x[30] <= 1
 edge871: x[141] + x[88] <= 1
 edge872: x[141] + x[119] <= 1
 edge873: x[141] + x[122] <= 1
 edge874: x[141] + x[132] <= 1
 edge875: x[141] + x[134] <= 1
 edge876: x[26] + x[132] <= 1
 edge877: x[26] + x[41] <= 1
 edge878: x[26] + x[77] <= 1
 edge879: x[26] + x[137] <= 1
 edge880: x[26] + x[89] <= 1
 edge881: x[26] + x[122] <= 1
 edge882: x[26] + x[94] <= 1
 edge883: x[147] + x[52] <= 1
 edge884: x[147] + x[58] <= 1
 edge885: x[147] + x[91] <= 1
 edge886: x[147] + x[133] <= 1
 edge887: x[147] + x[135] <= 1
 edge888: x[147] + x[145] <= 1
 edge889: x[122] + x[13] <= 1
 edge890: x[122] + x[16] <= 1
 edge891: x[122] + x[75] <= 1
 edge892: x[122] + x[77] <= 1
 edge893: x[122] + x[117] <= 1
 edge894: x[122] + x[125] <= 1
 edge895: x[125] + x[19] <= 1
 edge896: x[125] + x[30] <= 1
 edge897: x[125] + x[31] <= 1
 edge898: x[125] + x[82] <= 1
 edge899: x[125] + x[135] <= 1
 edge900: x[135] + x[52] <= 1
 edge901: x[135] + x[95] <= 1
 edge902: x[135] + x[111] <= 1
 edge903: x[135] + x[119] <= 1
 edge904: x[135] + x[145] <= 1
 edge905: x[12] + x[133] <= 1
 edge906: x[12] + x[89] <= 1
 edge907: x[145] + x[13] <= 1
 edge908: x[145] + x[36] <= 1
 edge909: x[145] + x[55] <= 1
 edge910: x[145] + x[133] <= 1
 edge911: x[24] + x[134] <= 1
 edge912: x[24] + x[46] <= 1
 edge913: x[41] + x[11] <= 1
 edge914: x[41] + x[30] <= 1
 edge915: x[41] + x[77] <= 1
 edge916: x[41] + x[46] <= 1
 edge917: x[41] + x[111] <= 1
 edge918: x[41] + x[73] <= 1
 edge919: x[41] + x[106] <= 1
 edge920: x[41] + x[53] <= 1
 edge921: x[76] + x[11] <= 1
 edge922: x[76] + x[30] <= 1
 edge923: x[76] + x[36] <= 1
 edge924: x[76] + x[51] <= 1
 edge925: x[76] + x[128] <= 1
 edge926: x[76] + x[91] <= 1
 edge927: x[77] + x[20] <= 1
 edge928: x[77] + x[53] <= 1
 edge929: x[77] + x[75] <= 1
 edge930: x[77] + x[128] <= 1
 edge931: x[77] + x[87] <= 1
 edge932: x[77] + x[133] <= 1
 edge933: x[77] + x[136] <= 1
 edge934: x[77] + x[90] <= 1
 edge935: x[77] + x[89] <= 1
 edge936: x[25] + x[19] <= 1
 edge937: x[25] + x[20] <= 1
 edge938: x[25] + x[136] <= 1
 edge939: x[25] + x[46] <= 1
 edge940: x[25] + x[48] <= 1
 edge941: x[25] + x[117] <= 1
 edge942: x[25] + x[95] <= 1
 edge943: x[25] + x[30] <= 1
 edge944: x[25] + x[127] <= 1
 edge945: x[94] + x[27] <= 1
 edge946: x[94] + x[30] <= 1
 edge947: x[94] + x[46] <= 1
 edge948: x[94] + x[48] <= 1
 edge949: x[94] + x[58] <= 1
 edge950: x[94] + x[63] <= 1
 edge951: x[117] + x[11] <= 1
 edge952: x[117] + x[51] <= 1
 edge953: x[19] + x[134] <= 1
 edge954: x[19] + x[82] <= 1
 edge955: x[19] + x[149] <= 1
 edge956: x[36] + x[16] <= 1
 edge957: x[36] + x[20] <= 1
 edge958: x[36] + x[137] <= 1
 edge959: x[36] + x[39] <= 1
 edge960: x[36] + x[87] <= 1
 edge961: x[36] + x[123] <= 1
 edge962: x[36] + x[92] <= 1
 edge963: x[55] + x[20] <= 1
 edge964: x[55] + x[37] <= 1
 edge965: x[55] + x[137] <= 1
 edge966: x[55] + x[89] <= 1
 edge967: x[11] + x[35] <= 1
 edge968: x[11] + x[31] <= 1
 edge969: x[11] + x[92] <= 1
 edge970: x[11] + x[138] <= 1
 edge971: x[11] + x[95] <= 1
 edge972: x[109] + x[16] <= 1
 edge973: x[109] + x[82] <= 1
 edge974: x[109] + x[89] <= 1
 edge975: x[109] + x[91] <= 1
 edge976: x[109] + x[123] <= 1
 edge977: x[51] + x[20] <= 1
 edge978: x[51] + x[48] <= 1
 edge979: x[51] + x[100] <= 1
 edge980: x[51] + x[92] <= 1
 edge981: x[51] + x[63] <= 1
 edge982: x[73] + x[27] <= 1
 edge983: x[73] + x[52] <= 1
 edge984: x[73] + x[58] <= 1
 edge985: x[73] + x[128] <= 1
 edge986: x[73] + x[119] <= 1
 edge987: x[20] + x[39] <= 1
 edge988: x[35] + x[13] <= 1
 edge989: x[31] + x[134] <= 1
 edge990: x[31] + x[46] <= 1
 edge991: x[31] + x[48] <= 1
 edge992: x[31] + x[87] <= 1
 edge993: x[31] + x[53] <= 1
 edge994: x[92] + x[37] <= 1
 edge995: x[92] + x[111] <= 1
 edge996: x[92] + x[119] <= 1
 edge997: x[95] + x[52] <= 1
 edge998: x[95] + x[134] <= 1
 edge999: x[95] + x[127] <= 1
 edge1000: x[133] + x[82] <= 1
 edge1001: x[133] + x[89] <= 1
 edge1002: x[133] + x[97] <= 1
 edge1003: x[133] + x[111] <= 1
 edge1004: x[133] + x[137] <= 1
 edge1005: x[133] + x[149] <= 1
 edge1006: x[89] + x[75] <= 1
 edge1007: x[89] + x[87] <= 1
 edge1008: x[89] + x[137] <= 1
 edge1009: x[13] + x[100] <= 1
 edge1010: x[13] + x[111] <= 1
 edge1011: x[13] + x[80] <= 1
 edge1012: x[13] + x[149] <= 1
 edge1013: x[100] + x[43] <= 1
 edge1014: x[100] + x[53] <= 1
 edge1015: x[100] + x[82] <= 1
 edge1016: x[111] + x[48] <= 1
 edge1017: x[111] + x[53] <= 1
 edge1018: x[111] + x[132] <= 1
 edge1019: x[111] + x[119] <= 1
 edge1020: x[80] + x[53] <= 1
 edge1021: x[80] + x[127] <= 1
 edge1022: x[149] + x[27] <= 1
 edge1023: x[149] + x[90] <= 1
 edge1024: x[27] + x[30] <= 1
 edge1025: x[27] + x[43] <= 1
 edge1026: x[16] + x[52] <= 1
 edge1027: x[16] + x[91] <= 1
 edge1028: x[52] + x[58] <= 1
 edge1029: x[52] + x[123] <= 1
 edge1030: x[91] + x[88] <= 1
 edge1031: x[91] + x[90] <= 1
 edge1032: x[91] + x[119] <= 1
 edge1033: x[91] + x[106] <= 1
 edge1034: x[106] + x[132] <= 1
 edge1035: x[106] + x[119] <= 1
 edge1036: x[88] + x[137] <= 1
 edge1037: x[88] + x[123] <= 1
 edge1038: x[88] + x[90] <= 1
 edge1039: x[137] + x[43] <= 1
 edge1040: x[137] + x[46] <= 1
 edge1041: x[137] + x[87] <= 1
 edge1042: x[137] + x[134] <= 1
 edge1043: x[43] + x[39] <= 1
 edge1044: x[43] + x[134] <= 1
 edge1045: x[90] + x[48] <= 1
 edge1046: x[90] + x[127] <= 1
 edge1047: x[134] + x[48] <= 1
 edge1048: x[134] + x[97] <= 1
 edge1049: x[82] + x[30] <= 1
 edge1050: x[82] + x[33] <= 1
 edge1051: x[82] + x[46] <= 1
 edge1052: x[82] + x[97] <= 1
 edge1053: x[39] + x[136] <= 1
 edge1054: x[39] + x[46] <= 1
 edge1055: x[39] + x[123] <= 1
 edge1056: x[39] + x[127] <= 1
 edge1057: x[63] + x[37] <= 1
 edge1058: x[63] + x[53] <= 1
 edge1059: x[123] + x[48] <= 1
 edge1060: x[123] + x[53] <= 1
 edge1061: x[123] + x[97] <= 1
 edge1062: x[33] + x[97] <= 1
 edge1063: x[53] + x[119] <= 1
 edge1064: x[30] + x[136] <= 1
 edge1065: x[46] + x[132] <= 1
 edge1066: x[46] + x[127] <= 1
 edge1067: x[136] + x[132] <= 1
 edge1068: x[127] + x[119] <= 1
Bounds
Binaries
 x[1] x[96] x[64] x[68] x[69] x[8] x[18] x[110] x[47] x[112] x[50] x[84]
 x[142] x[86] x[59] x[28] x[61] x[101] x[2] x[65] x[130] x[99] x[72] x[14]
 x[79] x[81] x[57] x[60] x[3] x[83] x[49] x[71] x[9] x[103] x[44] x[143]
 x[144] x[113] x[146] x[115] x[54] x[105] x[15] x[29] x[150] x[4] x[10]
 x[148] x[23] x[38] x[40] x[56] x[66] x[70] x[74] x[78] x[85] x[93] x[107]
 x[114] x[118] x[120] x[124] x[5] x[129] x[6] x[7] x[104] x[42] x[17] x[21]
 x[32] x[98] x[131] x[102] x[139] x[140] x[116] x[62] x[22] x[121] x[126]
 x[34] x[67] x[45] x[141] x[26] x[147] x[122] x[125] x[135] x[12] x[145]
 x[24] x[41] x[76] x[77] x[25] x[94] x[117] x[19] x[36] x[55] x[11] x[109]
 x[51] x[73] x[20] x[35] x[31] x[92] x[138] x[95] x[133] x[89] x[13] x[100]
 x[111] x[80] x[149] x[27] x[16] x[52] x[91] x[106] x[88] x[137] x[43]
 x[90] x[58] x[134] x[82] x[39] x[63] x[75] x[123] x[33] x[53] x[30] x[46]
 x[136] x[48] x[127] x[132] x[97] x[87] x[37] x[128] x[119] x[108]
End
